Zn2 Ga4 Se8
1.00000000000000     
5.5184604381140803    0.0000000000000000    0.0000000000000000
0.0000000000000000    5.5184604381140803    0.0000000000000000
0.0000000000000000    0.0000000000000000   10.8861387878230698
Zn  Ga  Se
2   4   8
Direct
0.0000000000000000  0.0000000000000000  0.5000000000000000
0.5000000000000000  0.5000000000000000  0.0000000000000000
0.5000000000000000  0.0000000000000000  0.2500000000000000
0.0000000000000000  0.5000000000000000  0.7500000000000000
0.0000000000000000  0.0000000000000000  0.0000000000000000
0.5000000000000000  0.5000000000000000  0.5000000000000000
0.2349328826322292  0.7311360127669886  0.3654899359904675
0.7349328826322292  0.2311360127669886  0.8654899359904675
0.2311360127669886  0.2650671173677708  0.1345100640095325
0.7311360127669886  0.7650671173677708  0.6345100640095325
0.7650671173677708  0.2688639872330114  0.3654899359904817
0.2650671173677708  0.7688639872330114  0.8654899359904817
0.2688639872330114  0.2349328826322292  0.6345100640095325
0.7688639872330114  0.7349328826322292  0.1345100640095325
