Cd2 Ga4 Se8 
1.00000000000000     
5.7473136794090696    0.0000000000000000    0.0000000000000000
0.0000000000000000    5.7473136794090696    0.0000000000000000
0.0000000000000000    0.0000000000000000   10.7823975628461906
Cd  Ga  Se
2   4   8
Direct
0.0000000000000000  0.0000000000000000  0.0000000000000000
0.5000000000000000  0.5000000000000000  0.5000000000000000
0.0000000000000000  0.5000000000000000  0.2500000000000000
0.5000000000000000  0.0000000000000000  0.7500000000000000
0.0000000000000000  0.0000000000000000  0.5000000000000000
0.5000000000000000  0.5000000000000000  0.0000000000000000
0.2227388788765765  0.2452240850255407  0.6401965966953469
0.7227388788765765  0.7452240850255407  0.1401965966953469
0.2772611211234235  0.2547759149744593  0.1401965966953469
0.7772611211234235  0.7547759149744593  0.6401965966953469
0.7547759149744593  0.2227388788765765  0.3598034033046531
0.2547759149744593  0.7227388788765765  0.8598034033046531
0.2452240850255407  0.7772611211234235  0.3598034033046531
0.7452240850255407  0.2772611211234235  0.8598034033046531
